1221
3448
5550
8661
1806
5341
8151
4838
2073
1751
7742
1279
6368
5171
2482
579
8019
10085
4193
2991
1745
6570
7585
1936
3132
9942
3812
2840
7977
5384
4305
2327
9619
4773
450
6309
7487
9922
6996
7479
1567
5723
3263
2257
6906
8582
10040
2061
1798
4294
